90 152 11
1 1 2 3 
1 4 5 6 
1 7 8 
1 9 10 
1 6 10 11 
1 12 13 
1 14 15 
1 16 10 
1 17 18 19 20 21 13 22 23 
1 24 25 
1 26 27 
1 28 29 15 30 31 32 33 34 
1 35 29 34 
1 36 37 
1 25 38 
1 39 38 40 
1 41 5 4 
1 42 43 44 45 
1 46 47 
1 48 49 
1 50 11 
1 51 52 53 
1 53 54 
1 55 10 
1 56 57 
1 3 58 
1 59 8 
1 60 61 
1 62 63 
1 64 65 
1 66 67 68 
1 69 5 52 
1 70 71 
1 72 73 
1 74 75 10 
1 76 77 
1 78 10 
1 79 10 
1 80 25 
1 81 25 
1 82 83 52 
1 84 82 
1 85 38 
1 86 69 87 
1 88 10 
1 89 66 
1 90 91 10 92 93 38 
1 94 91 
1 92 91 
1 95 23 96 97 49 
1 98 3 
1 96 91 49 
1 99 100 
1 100 101 5 3 25 
1 102 91 49 
1 103 49 
1 104 91 
1 105 91 95 106 38 
1 107 91 
1 108 10 
1 109 75 
1 110 15 8 111 10 112 
1 113 15 
1 8 114 
1 115 5 
1 116 5 
1 117 5 
1 118 5 71 
1 119 3 
1 32 91 38 
1 120 61 121 
1 122 36 
1 123 10 38 124 85 110 125 126 127 128 
1 129 45 
1 130 10 
1 131 10 
1 29 23 
1 18 75 
1 125 38 100 
1 126 5 132 57 133 134 135 136 
1 137 138 
1 139 128 
1 140 10 
1 141 23 31 91 
1 142 143 144 57 145 
1 146 147 
1 148 45 
1 149 99 52 
1 150 27 
1 151 10 152 58 3 
1
1
1
1
1
1
1
1
1
1
1
1
1
1
1
1
1
1
1
1
1
1
1
1
1
1
1
1
1
1
1
1
1
1
1
1
1
1
1
1
1
1
1
1
1
1
1
1
1
1
1
1
1
1
1
1
1
1
1
1
1
1
1
1
1
1
1
1
1
1
1
1
1
1
1
1
1
1
1
1
1
1
1
1
1
1
1
1
1
1
1
1
1
1
1
1
1
1
1
1
1
1
1
1
1
1
1
1
1
1
1
1
1
1
1
1
1
1
1
1
1
1
1
1
1
1
1
1
1
1
1
1
1
1
1
1
1
1
1
1
1
1
1
1
1
1
1
1
1
1
1
1
